&BANDS
    outdir='./output/',
    prefix='ni',
    filband='ni_bands_up.dat',
    spin_component = 1,
/
