&BANDS
  prefix = 'al'
  outdir = './output/'
  filband = 'al_bands.dat'
/
