&PROJWFC
  prefix= 'al',
  outdir= './output/',
  filpdos= 'al_pdos.dat'
/
