&CONTROL
  calculation= 'scf',
  restart_mode= 'from_scratch',
  prefix= 'al',
  outdir= './output/',
  pseudo_dir = '../../SOURCE/q-e-qe-7.4/pseudo/',
/

&SYSTEM
  ibrav=  2,
  celldm(1)= 7.63190982,
  nat=  1,
  ntyp= 1,
  ecutwfc = 48,
  ecutrho= 225,
  occupations= 'smearing',
  smearing= 'gaussian',
  degauss= 0.01
/

&ELECTRONS
  conv_thr= 1e-8
/

ATOMIC_SPECIES
  Al 26.981539 Al.pbe-n-kjpaw_psl.1.0.0.UPF

ATOMIC_POSITIONS (alat)
  Al 0.00 0.00 0.00

K_POINTS (automatic)
  10 10 10 0 0 0