 &DOS
   DeltaE          =  0.1
   Emax            =  20.0
   Emin            =  5.0
   fildos          =  'Fe.dos.dat'
   outdir          =  './output/'
   prefix          =  'fe'
 /


