&BANDS
  prefix = 'silicon',
  outdir = './output/',
  filband = 'si_bands.dat'
/
