&control
  calculation = 'bands',
  restart_mode = 'from_scratch',
  prefix = 'silicon',
  outdir = './output/'
  pseudo_dir = '../../SOURCE/q-e-qe-7.4/pseudo/',
  verbosity = 'high'
/

&system
  ibrav =  2,
  celldm(1) = 10.260000,
  nat =  2,
  ntyp = 1,
  ecutwfc = 50,
  ecutrho = 400,
  nbnd = 16
 /

&electrons
  conv_thr = 1e-8,
  mixing_beta = 0.7
 /

ATOMIC_SPECIES
  Si 28.086  Si.pz-n-kjpaw_psl.0.1.UPF

ATOMIC_POSITIONS (alat)
  Si 0.00 0.00 0.00
  Si 0.25 0.25 0.25

K_POINTS {crystal_b}
8
  0.0000000000  0.0000000000  0.0000000000 30 !G
  0.5000000000  0.0000000000  0.5000000000 20 !X
  0.6250000000  0.2500000000  0.6250000000 10 !U
  0.3750000000  0.3750000000  0.7500000000 20 !K
  0.0000000000  0.0000000000  0.0000000000 20 !G
  0.5000000000  0.5000000000  0.5000000000 10 !L
  0.5000000000  0.2500000000  0.7500000000 20 !W
  0.5000000000  0.2500000000  0.7500000000 30 !X