&CONTROL
  calculation = 'nscf',
  restart_mode = 'from_scratch',
  prefix = 'silicon',
  outdir = './output/',
  pseudo_dir = '../../SOURCE/q-e-qe-7.4/pseudo/',
  verbosity = 'high'
/

&SYSTEM
  ibrav =  2,
  celldm(1) = 10.260000,
  nat =  2,
  ntyp = 1,
  ecutrho = 152,
  ecutwfc = 38,
  nbnd = 16,
  occupations='tetrahedra'
  nosym = .TRUE.
/

&ELECTRONS
  conv_thr = 1.0E-10,
  mixing_beta = 0.7
/

ATOMIC_SPECIES
  Si 28.086 Si.pz-n-kjpaw_psl.0.1.UPF

ATOMIC_POSITIONS (alat)
  Si 0.0 0.0 0.0
  Si 0.25 0.25 0.25

K_POINTS (automatic)
  12 12 12 0 0 0