&control
    calculation = 'vc-relax',
    prefix = 'silicon',
    outdir = './output/',
    pseudo_dir = '../../SOURCE/q-e-qe-7.4/pseudo/',
    etot_conv_thr = 1.0d-5,
    forc_conv_thr = 1.0d-4
/

&system
    ibrav = 2
    celldm(1) = 10.26,
    nat = 2
    ntyp = 1
    ecutwfc = 30
/

&electrons
    conv_thr = 1.0d-8
/

&ions
/

&cell
    cell_dofree = 'ibrav'
/

ATOMIC_SPECIES
  Si  28.0855  Si.pz-n-kjpaw_psl.0.1.UPF

ATOMIC_POSITIONS (alat)
  Si 0.00 0.00 0.00
  Si 0.25 0.25 0.25

K_POINTS (automatic)
  6 6 6 1 1 1
