&control
  calculation = 'bands'
  restart_mode= 'from_scratch',
  prefix      = 'GaAs'
  outdir      = './output/',
  pseudo_dir  = '../../SOURCE/q-e-qe-7.4/pseudo/',
/

&system
  ibrav = 2
  celldm(1) = 10.861462
  nat = 2
  ntyp = 2
  ecutwfc = 60
  ecutrho = 244
  nbnd = 16
/

&electrons
  mixing_mode = 'local-TF'
  mixing_beta = 0.3
  conv_thr = 1.0e-8
/

ATOMIC_SPECIES
  Ga 69.723 Ga.pbe-dn-kjpaw_psl.1.0.0.UPF
  As 74.921595 As.pbe-n-kjpaw_psl.1.0.0.UPF

ATOMIC_POSITIONS
  Ga 0.00 0.00 0.00
  As 0.25 0.25 0.25

K_POINTS {crystal_b}
17
  0.00000000  0.00000000  0.00000000  30  ! Γ
  0.50000000  0.00000000  0.50000000  30  ! X
  0.62500000  0.25000000  0.62500000  30  ! U
  0.37500000  0.37500000  0.75000000  30  ! K
  0.00000000  0.00000000  0.00000000  30  ! Γ
  0.50000000  0.50000000  0.50000000  30  ! L
  0.50000000  0.25000000  0.75000000  30  ! W
  0.50000000  0.00000000  0.50000000  30  ! X
  0.00000000  0.00000000  0.00000000  30  ! Γ
 -0.50000000  0.00000000  0.50000000  30  ! X′
 -0.62500000 -0.25000000 -0.62500000  30  ! U′
 -0.37500000 -0.37500000 -0.75000000  30  ! K′
  0.00000000  0.00000000  0.00000000  30  ! Γ
 -0.50000000 -0.50000000 -0.50000000  30  ! L′
 -0.50000000 -0.25000000 -0.75000000  30  ! W′
 -0.50000000  0.00000000 -0.50000000  30  ! X′
  0.00000000  0.00000000  0.00000000  20  ! Γ (end)
