&control
  calculation = 'scf'
  prefix      = 'GaAs'
  outdir      = './output/',
  pseudo_dir  = '../../SOURCE/q-e-qe-7.4/pseudo/',
  verbosity   = 'high',
  wf_collect  = .true.
/

&system
  ibrav = 2
  celldm(1) = 10.861462
  nat = 2
  ntyp = 2
  ecutwfc = 60
  nbnd = 18
  ecutrho = 244
/

&electrons
  mixing_mode = 'plain'
  mixing_beta = 0.7
  conv_thr = 1.0e-8
/

ATOMIC_SPECIES
  Ga 69.723 Ga.pbe-dn-kjpaw_psl.1.0.0.UPF
  As 74.921595 As.pbe-n-kjpaw_psl.1.0.0.UPF

ATOMIC_POSITIONS alat
  Ga 0.00 0.00 0.00
  As 0.25 0.25 0.25

K_POINTS {automatic}
  6 6 6 0 0 0
