&bands
   outdir = './output/',
   prefix = 'GaAs',
   filband= 'GaAs_bands.dat',
   lsym=.true.
/
