&DOS
  prefix='FeO',
  outdir='./output/',
  fildos='FeO_dos.dat',
  emin=-9.0,
  emax=16.0
/
