&DOS
  prefix='graphene',
  outdir='./output/',
  fildos='graphene_dos.dat',
/

