&BANDS
  prefix  = 'graphene'
  outdir  = './output/'
  filband = 'graphene_bands.dat'
  lsym = .true.,
/
