&CONTROL
  calculation = 'bands',
  prefix      = 'graphene',
  outdir      = './output/',
  pseudo_dir  = '../../SOURCE/q-e-qe-7.4/pseudo/',
/

&SYSTEM
  ibrav     = 4,
  celldm(1) = 4.654,
  celldm(3) = 3.0,
  nat  = 2,
  ntyp = 1,
  ecutwfc = 25.0,
  ecutrho = 225.0,
  nbnd=8
/

&ELECTRONS
  conv_thr = 1.0d-8
/

ATOMIC_SPECIES
  C  12.0107 C.pbe-rrkjus.UPF

ATOMIC_POSITIONS {alat}
  C    0.000000    0.0000000   0.000000
  C    0.000000    0.5773503   0.000000

K_POINTS {crystal_b}
12
  0.0000000000	0.0000000000	0.0000000000 20 !G
  0.5000000000	0.0000000000	0.0000000000 10 !M
  0.3333333333	0.3333333333	0.0000000000 30 !K
  0.0000000000	0.0000000000	0.0000000000 20 !G
  0.0000000000	0.0000000000	0.5000000000 30 !A
  0.5000000000	0.0000000000	0.5000000000 10 !L
  0.3333333333	0.3333333333	0.5000000000 20 !H
  0.0000000000	0.0000000000	0.5000000000 30 !A
  0.5000000000	0.0000000000	0.5000000000 10 !L
  0.5000000000	0.0000000000	0.0000000000 10 !M
  0.3333333333	0.3333333333	0.5000000000 20 !H
  0.3333333333	0.3333333333	0.0000000000 30 !K


