&BANDS
    outdir='./output/',
    prefix='fe',
    filband='fe_bands_soc.dat',
/